(set-info :smt-lib-version 2.6)
(set-logic QF_SLIA)
(set-info :source |
Generated by: Dmitry Blotsky1, Federico Mora, Murphy Berzish, Yunhui Zheng, Ifaz Kabir, Vijay Ganesh, Zhengyang Lu
Generated on: 2018-01-24
Generator: StringFuzz
Application: Evaluate string solvers
Description: transformed by StringFuzz, a modular string and regex fuzzer, from an industrial benchmark
Target solver: Z3str3, CVC4, Z3str2, Norn
Publications: Blotsky, D., Mora, F., Berzish, M., Zheng, Y., Kabir, I., & Ganesh, V. (2018). Stringfuzz: A fuzzer for string solvers. In CAV 2018.
|)
(set-info :license "https://creativecommons.org/licenses/by/4.0/")
(set-info :category "random")
(set-info :status unknown)

(declare-const x String)
(declare-const y String)
(assert (str.in_re x (re.* (re.++ (str.to_re "THq,") (str.to_re "C]]")))))
(assert (= 13 (str.to.int x)))
(assert (not (= x "xfy\\}Py8!RjqREx23TtKy2q'\x0b'' ''Ox`")))
(assert (not (= x "321x^$jjX3rRjqRRjWR1f")))
(check-sat)

(exit)
